41
2 1 14
3 1 2
3 2 2
4 0 3
4 1 12
4 3 12
5 0 7
5 1 14
5 3 2
5 4 14
6 0 6
6 3 1
7 3 4
7 5 6
8 1 3
8 2 13
8 3 7
8 4 15
9 0 2
9 1 10
9 3 13
9 5 5
9 6 8
10 6 1
10 8 13
10 9 7
11 3 2
11 5 14
11 7 8
11 8 14
12 1 6
12 4 4
12 5 2
12 9 2
12 11 8
13 2 5
13 4 7
13 5 1
13 9 3
13 10 14
14 0 15
14 1 9
14 3 9
14 5 11
14 6 6
14 11 4
14 13 15
15 0 7
15 1 8
15 2 6
15 5 4
15 8 11
15 9 9
15 10 11
15 11 1
15 12 1
16 1 10
16 2 10
16 3 2
16 5 15
16 6 11
16 7 3
16 9 13
16 14 3
16 15 8
17 1 3
17 2 4
17 3 5
17 8 12
17 10 3
17 14 2
17 15 11
18 0 1
18 1 11
18 2 9
18 3 9
18 4 4
18 5 5
18 10 13
18 11 3
18 12 15
18 13 15
18 16 5
18 17 2
19 0 11
19 1 13
19 2 2
19 5 10
19 7 5
19 8 10
19 9 14
19 10 4
19 11 1
19 14 1
19 15 14
19 16 2
19 17 15
20 1 7
20 2 1
20 3 4
20 9 9
20 10 9
20 11 13
20 12 8
20 14 7
20 16 12
20 17 3
20 19 14
21 2 12
21 4 15
21 5 9
21 6 9
21 7 5
21 8 9
21 9 2
21 10 6
21 11 2
21 14 3
21 15 11
21 16 5
21 20 8
22 2 5
22 3 15
22 5 10
22 7 12
22 8 15
22 10 6
22 13 13
22 14 8
22 19 5
23 0 3
23 2 9
23 5 4
23 7 4
23 8 13
23 11 12
23 12 12
23 16 2
23 17 5
24 0 11
24 1 9
24 2 10
24 3 5
24 6 10
24 7 4
24 9 6
24 10 15
24 11 13
24 14 4
24 15 14
24 16 5
24 17 6
24 18 4
24 19 10
24 23 4
25 2 7
25 4 5
25 7 12
25 8 15
25 9 4
25 11 7
25 13 13
25 14 3
25 15 15
25 16 6
25 17 11
25 18 12
25 19 3
25 20 2
25 21 3
25 23 4
25 24 12
26 0 13
26 1 11
26 4 4
26 6 13
26 8 8
26 17 12
26 19 14
26 20 15
26 21 7
26 22 13
26 24 9
27 0 2
27 1 1
27 2 9
27 5 13
27 9 7
27 10 10
27 11 14
27 12 3
27 13 12
27 18 1
27 20 3
27 25 9
27 26 9
28 1 15
28 2 1
28 3 11
28 4 11
28 6 3
28 7 11
28 13 12
28 14 15
28 17 6
28 18 5
28 20 2
28 21 12
28 24 2
28 26 11
28 27 3
29 0 11
29 1 15
29 3 4
29 4 10
29 7 10
29 8 5
29 9 7
29 10 4
29 11 11
29 15 7
29 16 3
29 18 6
29 20 7
29 21 9
29 24 11
29 25 10
29 27 12
29 28 8
30 1 3
30 5 1
30 6 6
30 7 12
30 8 13
30 14 10
30 15 1
30 18 10
30 19 6
30 20 14
30 23 4
30 28 5
31 0 1
31 1 10
31 2 15
31 4 12
31 7 4
31 9 11
31 12 3
31 13 7
31 14 12
31 15 6
31 17 2
31 18 12
31 20 1
31 21 9
31 22 6
31 23 5
31 24 13
31 25 11
31 26 14
31 30 3
32 1 15
32 3 10
32 4 13
32 8 7
32 12 11
32 14 15
32 15 2
32 17 12
32 18 5
32 19 9
32 23 1
32 25 9
32 29 5
32 30 8
33 1 13
33 2 13
33 7 6
33 9 2
33 11 15
33 12 15
33 16 8
33 17 14
33 18 12
33 20 1
33 23 9
33 24 15
33 26 14
33 27 11
33 28 7
33 29 9
33 31 12
33 32 13
34 4 7
34 5 6
34 7 11
34 8 14
34 9 3
34 10 4
34 12 10
34 16 1
34 18 13
34 19 13
34 24 2
34 25 14
34 29 12
34 33 12
35 0 2
35 1 1
35 3 2
35 7 15
35 8 15
35 11 10
35 12 9
35 13 11
35 15 4
35 17 7
35 18 8
35 20 4
35 21 6
35 25 10
35 29 3
35 30 10
35 31 1
35 33 13
36 2 10
36 9 3
36 12 5
36 16 12
36 19 12
36 22 12
36 24 8
36 25 7
36 26 11
36 27 13
36 28 1
36 31 8
36 33 10
36 35 8
37 0 7
37 1 14
37 2 3
37 4 11
37 6 13
37 8 15
37 9 1
37 10 2
37 13 11
37 15 3
37 16 15
37 17 15
37 18 4
37 20 12
37 22 12
37 24 3
37 25 14
37 26 8
37 28 1
37 29 2
37 31 3
37 35 3
38 2 6
38 3 7
38 4 6
38 5 8
38 6 12
38 8 4
38 10 11
38 13 14
38 14 8
38 15 1
38 17 9
38 20 1
38 22 7
38 23 8
38 25 6
38 26 5
38 28 11
38 30 3
38 31 5
38 32 2
38 36 4
38 37 7
39 0 12
39 4 1
39 7 12
39 8 12
39 12 3
39 13 3
39 15 1
39 16 15
39 17 12
39 18 8
39 19 11
39 20 8
39 22 4
39 26 9
39 29 11
39 30 3
39 33 6
39 34 2
39 35 2
39 38 1
40 0 14
40 2 5
40 4 11
40 6 12
40 9 11
40 11 2
40 13 6
40 16 1
40 19 12
40 25 9
40 27 3
40 29 6
40 30 7
40 36 8
